(set-option :smt.auto-config false)
(set-option :smt.mbqi false)
(set-option :sat.random_seed 488)
(set-option :smt.random_seed 599)
(set-option :nlsat.seed 611)
(set-option :memory_max_size 6000)
(declare-fun f (Int) Int)
(declare-sort RegExStr 0)
(declare-sort RMode 0)
(declare-fun g (Int) Int)
(declare-const x2 Int)
(assert (! (forall ((x0py0 Int)) (! (not (= (f x0py0) x2)) :pattern ((f x0py0)) )) :named A0))
(assert (! (forall ((x1py0 Int)) (! (= (f (g x1py0)) x1py0) :pattern ((f (g x1py0))) )) :named A1))
(assert (! (not (<= x2 6)) :named A2))
(assert (! (not (<= 8 x2)) :named A3))
